solution status: optimal solution found
objective value:                                    0
$_87_y                                            -14 	(obj:0)
$_87_z                                             -6 	(obj:0)
$_157_y                                           -10 	(obj:0)
$_157_z                                            -2 	(obj:0)
$_205_y                                            -7 	(obj:0)
$_205_z                                            -5 	(obj:0)
$_156_y                                           -10 	(obj:0)
$_156_z                                            -3 	(obj:0)
$_245_y                                            -7 	(obj:0)
$_245_z                                            -8 	(obj:0)
$_85_y                                            -13 	(obj:0)
$_85_z                                             -6 	(obj:0)
$_164_y                                           -10 	(obj:0)
$_164_z                                            -4 	(obj:0)
$_246_y                                            -7 	(obj:0)
$_246_z                                            -7 	(obj:0)
$_163_y                                           -10 	(obj:0)
$_163_z                                            -5 	(obj:0)
$_239_y                                            -3 	(obj:0)
$_239_z                                            -4 	(obj:0)
$_198_y                                            -6 	(obj:0)
$_198_z                                            -1 	(obj:0)
$_86_y                                             -6 	(obj:0)
$_86_z                                            -11 	(obj:0)
$_204_y                                            -7 	(obj:0)
$_204_z                                            -4 	(obj:0)
$_278_y                                            -3 	(obj:0)
$_278_z                                            -8 	(obj:0)
$_197_y                                            -6 	(obj:0)
$_197_z                                            -5 	(obj:0)
$_83_y                                            -13 	(obj:0)
$_83_z                                             -5 	(obj:0)
$_82_y                                             -6 	(obj:0)
$_82_z                                            -10 	(obj:0)
$_238_y                                            -6 	(obj:0)
$_238_z                                            -8 	(obj:0)
$_84_y                                             -5 	(obj:0)
$_84_z                                            -11 	(obj:0)
